50
1000
208
203
203
201
193
193
191
190
189
172
169
168
166
165
165
162
161
161
159
156
156
153
152
150
147
145
145
142
141
138
138
138
128
121
119
118
113
110
109
107
106
101
101
97
91
84
83
74
74
73
